17	4	3
12	8	13	10	32	26	23	
0	0	0	0	0	10	4	7	4	2	4	3	2	3	4
9	0	0	8	0	4	9	7	3	1	5	2	13	17
3	1	0	0	0	3	1	3	5	7	4	3	5	6	11
3	0	0	8	0	8	4	2	8	8	10	2	15	17
6	0	0	0	8	6	6	7	9	8	2	1	17
150	0	0	0	2	6	8	6	2	1	7	2	7	10
225	0	0	0	3	5	5	6	1	8	6	3	8	9	17
175	0	0	0	8	6	10	7	8	5	4	1	16
250	0	0	0	2	2	2	7	4	10	4	3	12	16	17
25	1	0	0	0	3	5	10	9	4	7	2	14	17
200	0	0	0	2	1	9	4	6	10	5	1	17
175	0	0	0	8	3	4	9	8	5	6	1	17
5	9	0	0	0	4	10	6	10	8	1	1	17
4	0	0	0	1	3	9	3	9	2	2	1	17
7	0	1	0	0	3	5	7	2	3	10	1	17
9	0	4	0	0	9	4	8	2	9	8	1	17
0	0	0	0	0	7	2	2	5	9	6	0
